! 10/2/2026 3:16:39 PM
! C:\ANRITSUVNA\TEMP\TEMP.S2P
! CHANNEL.1
! TR.MEASUREMENT
! RAW.DATA
# HZ S RI R 50.0
! FREQ.HZ          S11RE         S11IM         S21RE         S21IM         S12RE         S12IM         S22RE         S22IM         
!; PortSelection: Port_12
   30000000000    -0.2448554    0.0409982     0.1786644    0.4130120    -0.2509851    0.3681078    -0.0605046    0.0894652 
   30204081633     0.0202744   -0.0336738    -0.0591715   -0.4545425     0.3578574   -0.2951387     0.1147352   -0.0437313 
   30408163265    -0.0360732    0.0389627    -0.1504476    0.4505763    -0.4612461    0.1046630    -0.0046078    0.1016949 
   30612244898    -0.0301898   -0.0002693     0.3114589   -0.3741086     0.4826114    0.0621535     0.0068611    0.0639693 
   30816326531    -0.0977517    0.0599298    -0.3956724    0.2364356    -0.4121633   -0.2104038     0.0429909    0.0931845 
   31020408163     0.0912755    0.0748984     0.4514061   -0.0513580     0.2873821    0.3514414     0.0066122    0.0844071 
   31224489796    -0.0881009    0.1469273    -0.4577540   -0.0980282    -0.1580722   -0.4449598     0.0123540   -0.0250040 
   31428571429    -0.0251540    0.0125306     0.3854828    0.2631645    -0.0102091    0.4701103     0.0571915    0.0023884 
   31632653061    -0.1400316    0.0998843    -0.2627513   -0.3535990     0.1683591   -0.4208418    -0.0513946   -0.0270561 
   31836734694    -0.0224346    0.0295576     0.0618441    0.4417523    -0.3416850    0.2917627     0.1157009   -0.0732266 
   32040816327    -0.1525592    0.1167337     0.0711197   -0.4039746     0.3917998   -0.1526840     0.0195039    0.1494520 
   32244897959     0.0420250   -0.1151442    -0.2344512    0.3703730    -0.4378067   -0.0140754     0.0745994   -0.1212843 
   32448979592     0.0466222    0.0999218     0.4052532   -0.2451760     0.4216684    0.2400491     0.1205580    0.1572109 
   32653061224    -0.0332825   -0.1041795    -0.4536429    0.1259438    -0.3224774   -0.3319916    -0.0263600    0.0453389 
   32857142857     0.1188141    0.0415875     0.4361288    0.0424367     0.1733671    0.4032041     0.0783457    0.1031694 
   33061224490     0.0882112    0.0401318    -0.4140052   -0.2146501    -0.0143970   -0.4506985     0.0158957    0.0700993 
   33265306122     0.0183596    0.0264951     0.2985359    0.3589507    -0.1532733    0.4205102    -0.0656041    0.0102393 
   33469387755     0.0917688    0.0372436    -0.1550304   -0.4594675     0.3227431   -0.3285575    -0.0323787   -0.0142938 
   33673469388     0.0296970    0.1372131     0.0010138    0.4784971    -0.4172538    0.1947187    -0.0272116    0.0070651 
   33877551020     0.0158717   -0.0456604     0.1557975   -0.4334947     0.4506971   -0.0347771     0.0135961   -0.1077789 
   34081632653     0.0403659    0.0343875    -0.3088200    0.3475699    -0.4425119   -0.1423375     0.0723670    0.0131334 
   34285714286     0.0016888    0.0079668     0.4152413   -0.2007360     0.3642920    0.2984329    -0.0319759   -0.0268927 
   34489795918     0.0397261    0.0731048    -0.4575452    0.0672917    -0.2537012   -0.4039837     0.0460130    0.0248215 
   34693877551     0.1030224    0.0073576     0.4355524    0.1071334     0.0691607    0.4551520     0.0235098   -0.0034862 
   34897959184     0.0943798    0.0430752    -0.3474416   -0.2447438     0.0920779   -0.4301876    -0.0238802   -0.0315478 
   35102040816     0.0396340    0.0093573     0.2408373    0.3770314    -0.2601433    0.3691611    -0.0092186   -0.0205129 
   35306122449     0.0765476    0.0528117    -0.0665406   -0.4350034     0.3788404   -0.2362490    -0.0317100   -0.0190802 
   35510204082     0.0386441    0.0934249    -0.0794474    0.4382409    -0.4446550    0.0930799     0.0006331   -0.0360082 
   35714285714     0.0029003    0.0352833     0.2484214   -0.3783093     0.4529658    0.0838592     0.0024208   -0.0663288 
   35918367347     0.0172591    0.0029941    -0.3474190    0.2763138    -0.3907438   -0.2199842     0.0528046   -0.0901374 
   36122448980    -0.0492711    0.0016825     0.4303155   -0.1236412     0.2777690    0.3509656     0.0011975   -0.0289327 
   36326530612     0.0742155   -0.0093499    -0.4251871   -0.0320423    -0.1213071   -0.4099037     0.0714446   -0.0801575 
   36530612245    -0.0217453   -0.0091679     0.3973750    0.2007186    -0.0499223    0.4427930    -0.0036120    0.0254721 
   36734693878     0.1003837   -0.0949238    -0.2687300   -0.3327926     0.2158007   -0.3766542     0.0183942   -0.0562627 
   36938775510     0.0425696    0.0457436     0.1458830    0.4052618    -0.3247664    0.2839479     0.0014560    0.0467467 
   37142857143     0.0470753   -0.1139139     0.0274027   -0.4092910     0.3959172   -0.1263151    -0.0993500   -0.0771872 
   37346938776     0.0811633    0.0326523    -0.1630835    0.3992113    -0.4337272   -0.0245447     0.0037379   -0.0268988 
   37551020408    -0.0004047   -0.0191478     0.3194943   -0.3134781     0.4031872    0.1898504    -0.0569898   -0.0864488 
   37755102041     0.0333502   -0.0308919    -0.4143265    0.1828314    -0.3151674   -0.3357710    -0.0378980   -0.0679484 
   37959183673     0.0727291   -0.0711932     0.4276684   -0.0289608     0.1652500    0.3937290    -0.0085325   -0.0611693 
   38163265306     0.0007722    0.0141468    -0.4090185   -0.1409273     0.0080139   -0.4322252     0.0176195   -0.0003637 
   38367346939     0.0579990   -0.1425938     0.3260198    0.2428366    -0.1317964    0.3867318     0.0349028   -0.1063291 
   38571428571     0.0494539   -0.0419942    -0.2030934   -0.3836558     0.3061597   -0.2943762    -0.0325167    0.0118420 
   38775510204    -0.0082611   -0.0781705     0.0502647    0.4594204    -0.4245629    0.1711317    -0.0916342   -0.0267833 
   38979591837     0.0503599    0.0141566     0.0803917   -0.4187796     0.4295864   -0.0455512    -0.0077310   -0.0005816 
   39183673469     0.0232699   -0.0385639    -0.2665513    0.3344627    -0.3971522   -0.1477398    -0.0808556   -0.0809066 
   39387755102    -0.0205934    0.0242834     0.3636235   -0.2417484     0.3421085    0.2611410    -0.0563990   -0.0652687 
   39591836735    -0.0531476   -0.0398507    -0.4060810    0.0945063    -0.2217404   -0.3497214    -0.0016772   -0.0680999 
   39795918367    -0.0891064    0.0271901     0.4148684    0.0649235     0.0563195    0.4118485     0.0532459   -0.0220296 
   40000000000    -0.0942947   -0.1244315    -0.3676881   -0.2019519     0.0873498   -0.4086325     0.0390052   -0.1469933 
