! 10/2/2026 3:13:18 PM
! C:\ANRITSUVNA\TEMP\TEMP.S2P
! CHANNEL.1
! TR.MEASUREMENT
! RAW.DATA
# HZ S RI R 50.0
! FREQ.HZ          S11RE         S11IM         S21RE         S21IM         S12RE         S12IM         S22RE         S22IM         
!; PortSelection: Port_12
   30000000000    -0.2470034    0.0470992     0.1764746    0.4071451    -0.2467615    0.3630994    -0.0618630    0.0931770 
   30204081633     0.0197984   -0.0415315    -0.0592772   -0.4473879     0.3515859   -0.2920755     0.1144561   -0.0478332 
   30408163265    -0.0338155    0.0444873    -0.1479785    0.4461550    -0.4560670    0.1048686    -0.0034887    0.1042368 
   30612244898    -0.0340030   -0.0044125     0.3086105   -0.3710210     0.4787979    0.0609243     0.0063615    0.0631778 
   30816326531    -0.0931652    0.0610053    -0.3930500    0.2347015    -0.4097549   -0.2085390     0.0426820    0.0919037 
   31020408163     0.0872393    0.0747053     0.4483320   -0.0519030     0.2864362    0.3485955     0.0077076    0.0858633 
   31224489796    -0.0860272    0.1453451    -0.4552504   -0.0967994    -0.1579851   -0.4420854     0.0101760   -0.0267406 
   31428571429    -0.0261907    0.0130440     0.3838487    0.2606674    -0.0088984    0.4670340     0.0602134    0.0039636 
   31632653061    -0.1395394    0.1008510    -0.2616503   -0.3510758     0.1660844   -0.4186796    -0.0549636   -0.0283142 
   31836734694    -0.0243597    0.0286153     0.0627599    0.4386615    -0.3383563    0.2909129     0.1206219   -0.0723046 
   32040816327    -0.1488922    0.1175711     0.0695225   -0.4019960     0.3887748   -0.1535362     0.0150164    0.1494113 
   32244897959     0.0381283   -0.1139625    -0.2326275    0.3690892    -0.4357077   -0.0126929     0.0790692   -0.1232078 
   32448979592     0.0493382    0.0971343     0.4026380   -0.2447263     0.4198756    0.2378344     0.1165263    0.1602998 
   32653061224    -0.0339369   -0.0997108    -0.4513762    0.1267628    -0.3226874   -0.3291490    -0.0237875    0.0417756 
   32857142857     0.1172904    0.0378294     0.4348584    0.0411034     0.1742178    0.4012436     0.0771395    0.1062336 
   33061224490     0.0911619    0.0421849    -0.4127504   -0.2119771    -0.0161089   -0.4484842     0.0153506    0.0674960 
   33265306122     0.0150318    0.0271978     0.2985830    0.3559555    -0.1507089    0.4187850    -0.0649665    0.0114956 
   33469387755     0.0942824    0.0356716    -0.1562035   -0.4568615     0.3205528   -0.3284855    -0.0324333   -0.0141763 
   33673469388     0.0296286    0.1388620     0.0035828    0.4761215    -0.4139728    0.1961071    -0.0277045    0.0055878 
   33877551020     0.0150491   -0.0468794     0.1527541   -0.4325930     0.4483612   -0.0368370     0.0159940   -0.1063506 
   34081632653     0.0406638    0.0344856    -0.3051491    0.3475878    -0.4410633   -0.1388936     0.0687546    0.0123922 
   34285714286     0.0025610    0.0080701     0.4119033   -0.2029065     0.3647226    0.2944710    -0.0275824   -0.0273445 
   34489795918     0.0388263    0.0736016    -0.4551926    0.0698721    -0.2548207   -0.4009347     0.0421350    0.0266063 
   34693877551     0.1043090    0.0047437     0.4335191    0.1037123     0.0723197    0.4517694     0.0270883   -0.0066089 
   34897959184     0.0944609    0.0461001    -0.3473360   -0.2403441     0.0883642   -0.4287937    -0.0265129   -0.0278229 
   35102040816     0.0375206    0.0065158     0.2419059    0.3729114    -0.2560326    0.3684814    -0.0081205   -0.0243926 
   35306122449     0.0796562    0.0546467    -0.0692307   -0.4313732     0.3745013   -0.2375402    -0.0306144   -0.0158890 
   35510204082     0.0351743    0.0921083    -0.0752547    0.4364614    -0.4412375    0.0963853    -0.0012109   -0.0385293 
   35714285714     0.0054484    0.0340317     0.2440177   -0.3780996     0.4508461    0.0793049     0.0039170   -0.0659018 
   35918367347     0.0150112    0.0051391    -0.3425555    0.2775109    -0.3900494   -0.2150115     0.0517402   -0.0890992 
   36122448980    -0.0487153   -0.0001033     0.4257666   -0.1260425     0.2788495    0.3455962     0.0006454   -0.0319262 
   36326530612     0.0738014   -0.0092129    -0.4223578   -0.0277624    -0.1247856   -0.4055150     0.0736669   -0.0774163 
   36530612245    -0.0210147   -0.0098470     0.3954363    0.1951525    -0.0456668    0.4392492    -0.0079416    0.0233531 
   36734693878     0.0980756   -0.0927222    -0.2695009   -0.3259614     0.2088287   -0.3748938     0.0248575   -0.0553904 
   36938775510     0.0442745    0.0431343     0.1486564    0.3995018    -0.3184936    0.2844225    -0.0057236    0.0488123 
   37142857143     0.0473668   -0.1088571     0.0218898   -0.4048313     0.3898116   -0.1298828    -0.0925160   -0.0811717 
   37346938776     0.0782229    0.0292044    -0.1572637    0.3956901    -0.4286836   -0.0199248     0.0002746   -0.0205500 
   37551020408     0.0060538   -0.0175981     0.3111473   -0.3115282     0.3983237    0.1827679    -0.0573807   -0.0936891 
   37755102041     0.0259087   -0.0285719    -0.4047709    0.1845527    -0.3131016   -0.3264601    -0.0351405   -0.0612739 
   37959183673     0.0778588   -0.0772878     0.4196216   -0.0327898     0.1664179    0.3848489    -0.0131009   -0.0648883 
   38163265306    -0.0012712    0.0202954    -0.4023495   -0.1361809     0.0051437   -0.4246168     0.0218186   -0.0024897 
   38367346939     0.0565004   -0.1495111     0.3198162    0.2357481    -0.1262156    0.3788883     0.0311230   -0.1003513 
   38571428571     0.0529110   -0.0351599    -0.2017881   -0.3740975     0.2979075   -0.2908472    -0.0332413    0.0067983 
   38775510204    -0.0113166   -0.0824974     0.0516190    0.4501161    -0.4157272    0.1697592    -0.0848728   -0.0238670 
   38979591837     0.0548248    0.0155348     0.0774617   -0.4110333     0.4210705   -0.0465409    -0.0173934   -0.0015887 
   39183673469     0.0166219   -0.0399185    -0.2595465    0.3273271    -0.3882826   -0.1432200    -0.0722046   -0.0846720 
   39387755102    -0.0138468    0.0249847     0.3548115   -0.2362109     0.3341838    0.2541787    -0.0604521   -0.0568991 
   39591836735    -0.0597736   -0.0390320    -0.3960069    0.0917104    -0.2158338   -0.3412309    -0.0019589   -0.0787419 
   39795918367    -0.0827286    0.0219952     0.4038944    0.0653897     0.0532454    0.4016526     0.0552369   -0.0147693 
   40000000000    -0.0976076   -0.1165586    -0.3588673   -0.2017226     0.0898515   -0.3999767     0.0361617   -0.1502823 
