! 10/2/2026 3:13:29 PM
! C:\ANRITSUVNA\TEMP\TEMP.S2P
! CHANNEL.1
! TR.MEASUREMENT
! RAW.DATA
# HZ S RI R 50.0
! FREQ.HZ          S11RE         S11IM         S21RE         S21IM         S12RE         S12IM         S22RE         S22IM         
!; PortSelection: Port_12
   30000000000    -0.2468719    0.0470271     0.1766021    0.4071518    -0.2469639    0.3633430    -0.0618526    0.0931516 
   30204081633     0.0198276   -0.0414874    -0.0596979   -0.4475991     0.3516734   -0.2920510     0.1144854   -0.0478454 
   30408163265    -0.0338859    0.0443700    -0.1479254    0.4462353    -0.4560813    0.1048306    -0.0036454    0.1041361 
   30612244898    -0.0339388   -0.0043800     0.3088382   -0.3713596     0.4787780    0.0609019     0.0064677    0.0631672 
   30816326531    -0.0932061    0.0609340    -0.3931077    0.2346745    -0.4098116   -0.2085677     0.0427310    0.0919406 
   31020408163     0.0873027    0.0746770     0.4485408   -0.0518523     0.2865706    0.3488785     0.0076947    0.0858411 
   31224489796    -0.0860603    0.1454146    -0.4553961   -0.0967488    -0.1583760   -0.4421712     0.0102472   -0.0267260 
   31428571429    -0.0262585    0.0129541     0.3839000    0.2606848    -0.0091208    0.4670247     0.0601744    0.0039532 
   31632653061    -0.1395165    0.1009317    -0.2619819   -0.3510116     0.1663398   -0.4188469    -0.0549259   -0.0284172 
   31836734694    -0.0243642    0.0285321     0.0629455    0.4388179    -0.3383669    0.2910254     0.1207226   -0.0721842 
   32040816327    -0.1489431    0.1176114     0.0695173   -0.4020447     0.3887506   -0.1534495     0.0149218    0.1492638 
   32244897959     0.0379315   -0.1139968    -0.2325635    0.3691218    -0.4355824   -0.0128200     0.0791195   -0.1231799 
   32448979592     0.0494343    0.0970719     0.4024479   -0.2447586     0.4199778    0.2379714     0.1165001    0.1602745 
   32653061224    -0.0340018   -0.0995589    -0.4512278    0.1272037    -0.3225275   -0.3291226    -0.0237162    0.0417869 
   32857142857     0.1172740    0.0377729     0.4346675    0.0409376     0.1743269    0.4014337     0.0770913    0.1062175 
   33061224490     0.0911920    0.0422639    -0.4125226   -0.2118247    -0.0153610   -0.4486355     0.0153643    0.0674197 
   33265306122     0.0150472    0.0271713     0.2982156    0.3557663    -0.1504633    0.4189149    -0.0649600    0.0115426 
   33469387755     0.0943649    0.0356924    -0.1562834   -0.4568253     0.3204312   -0.3282252    -0.0325482   -0.0140846 
   33673469388     0.0295872    0.1389239     0.0033917    0.4760485    -0.4141993    0.1960040    -0.0277133    0.0056434 
   33877551020     0.0151181   -0.0469096     0.1528264   -0.4324206     0.4482144   -0.0365945     0.0159787   -0.1062844 
   34081632653     0.0406661    0.0345200    -0.3052726    0.3476212    -0.4412313   -0.1385431     0.0687828    0.0123099 
   34285714286     0.0026194    0.0079986     0.4119337   -0.2030160     0.3644064    0.2946873    -0.0275935   -0.0273214 
   34489795918     0.0388037    0.0736647    -0.4549915    0.0696631    -0.2549211   -0.4005605     0.0420308    0.0265754 
   34693877551     0.1043164    0.0046987     0.4337639    0.1035331     0.0722090    0.4515735     0.0271090   -0.0065970 
   34897959184     0.0944963    0.0462252    -0.3470454   -0.2404330     0.0880972   -0.4284785    -0.0266237   -0.0277460 
   35102040816     0.0375021    0.0064930     0.2417627    0.3730918    -0.2559049    0.3686378    -0.0082305   -0.0244525 
   35306122449     0.0797687    0.0546491    -0.0690681   -0.4314753     0.3750490   -0.2370326    -0.0304978   -0.0158628 
   35510204082     0.0351622    0.0921580    -0.0755400    0.4362465    -0.4413046    0.0959324    -0.0011941   -0.0384711 
   35714285714     0.0055050    0.0340588     0.2439367   -0.3780103     0.4508804    0.0794859     0.0038941   -0.0659640 
   35918367347     0.0149740    0.0051554    -0.3427074    0.2773883    -0.3897846   -0.2157258     0.0517581   -0.0889407 
   36122448980    -0.0486469   -0.0001770     0.4257441   -0.1260185     0.2783260    0.3456843     0.0006191   -0.0319036 
   36326530612     0.0738230   -0.0091410    -0.4223992   -0.0278221    -0.1246035   -0.4052989     0.0736783   -0.0773271 
   36530612245    -0.0210774   -0.0099286     0.3952949    0.1953404    -0.0452905    0.4390777    -0.0079035    0.0233705 
   36734693878     0.0981883   -0.0927238    -0.2694080   -0.3261130     0.2088117   -0.3748408     0.0248944   -0.0554042 
   36938775510     0.0442538    0.0431883     0.1487302    0.3995769    -0.3184978    0.2844908    -0.0057649    0.0488687 
   37142857143     0.0473969   -0.1089414     0.0220130   -0.4049700     0.3896439   -0.1297741    -0.0924837   -0.0811852 
   37346938776     0.0782079    0.0292126    -0.1573453    0.3955775    -0.4285018   -0.0198322     0.0003363   -0.0205605 
   37551020408     0.0059835   -0.0176425     0.3110934   -0.3115927     0.3985429    0.1825574    -0.0573257   -0.0935827 
   37755102041     0.0259629   -0.0286146    -0.4051037    0.1846855    -0.3133076   -0.3267256    -0.0351584   -0.0613075 
   37959183673     0.0778155   -0.0772422     0.4196300   -0.0326654     0.1665558    0.3849807    -0.0131096   -0.0648661 
   38163265306    -0.0012856    0.0202175    -0.4024124   -0.1361481     0.0054589   -0.4248174     0.0217677   -0.0024904 
   38367346939     0.0565245   -0.1495412     0.3199277    0.2357597    -0.1264738    0.3789699     0.0311537   -0.1004005 
   38571428571     0.0528896   -0.0352205    -0.2019938   -0.3744240     0.2976853   -0.2910454    -0.0332159    0.0068734 
   38775510204    -0.0111258   -0.0825114     0.0515181    0.4501457    -0.4159257    0.1698325    -0.0848836   -0.0238127 
   38979591837     0.0547858    0.0156013     0.0772750   -0.4111355     0.4211943   -0.0461919    -0.0173190   -0.0015773 
   39183673469     0.0167129   -0.0400224    -0.2595143    0.3276508    -0.3881579   -0.1433656    -0.0722287   -0.0845826 
   39387755102    -0.0139238    0.0250210     0.3548024   -0.2362420     0.3343424    0.2540274    -0.0604948   -0.0569087 
   39591836735    -0.0597883   -0.0390855    -0.3960611    0.0920227    -0.2159993   -0.3412681    -0.0018176   -0.0786947 
   39795918367    -0.0826425    0.0220697     0.4039190    0.0651006     0.0530391    0.4018546     0.0551471   -0.0147321 
   40000000000    -0.0977648   -0.1166423    -0.3589107   -0.2018946     0.0899467   -0.4000350     0.0361824   -0.1503535 
