! 10/2/2026 3:19:51 PM
! C:\ANRITSUVNA\TEMP\TEMP.S2P
! CHANNEL.1
! TR.MEASUREMENT
! RAW.DATA
# HZ S RI R 50.0
! FREQ.HZ          S11RE         S11IM         S21RE         S21IM         S12RE         S12IM         S22RE         S22IM         
!; PortSelection: Port_12
   30000000000     0.2080721    0.2096820     0.0013266   -0.0001568     0.0007614    0.0010269     0.3759318    0.0963954 
   30204081633    -0.4337659   -0.0788828    -0.0009854   -0.0000340    -0.0005028   -0.0008483    -0.2773279    0.0650396 
   30408163265     0.3185259   -0.1005332     0.0007276    0.0000573     0.0003275    0.0006333     0.2907622   -0.1492943 
   30612244898    -0.2948549    0.2729215    -0.0004831   -0.0000971    -0.0001252   -0.0005012    -0.1617734    0.3754523 
   30816326531     0.0407461   -0.3150134     0.0003168    0.0002867    -0.0001364    0.0004181     0.0508289   -0.2532578 
   31020408163     0.0516334    0.4266307    -0.0000211   -0.0003818     0.0001745   -0.0002325     0.0868547    0.3857421 
   31224489796    -0.1871503   -0.1955318    -0.0001620    0.0002876    -0.0003705    0.0000685    -0.1578185   -0.2552618 
   31428571429     0.1760382    0.2952489     0.0004147   -0.0002000     0.0003633    0.0002316     0.2742207    0.1852897 
   31632653061    -0.3597113   -0.0862929    -0.0005543    0.0001597    -0.0004624   -0.0004273    -0.2733279   -0.1272316 
   31836734694     0.2540775    0.2353575     0.0005437    0.0002606     0.0000251    0.0005775     0.4011199   -0.0426727 
   32040816327    -0.4170192    0.0026083    -0.0004666   -0.0002914    -0.0000225   -0.0005493    -0.2472487    0.1548271 
   32244897959     0.3125539   -0.1562165     0.0005840    0.0007162    -0.0003430    0.0008870     0.3102142   -0.2355435 
   32448979592    -0.2873602    0.2666315    -0.0001276   -0.0008490     0.0007076   -0.0006161    -0.0939342    0.3430946 
   32653061224     0.1963290   -0.3357108     0.0001202    0.0010667    -0.0007991    0.0006300     0.1242334   -0.2453613 
   32857142857     0.0009343    0.3374613     0.0001277   -0.0013589     0.0011898   -0.0004715    -0.0161058    0.3993963 
   33061224490     0.0716096   -0.3010837    -0.0007972    0.0013003    -0.0013900   -0.0001724    -0.0678392   -0.2226252 
   33265306122     0.1286528    0.3757283     0.0012829   -0.0009746     0.0013501    0.0006745     0.1511857    0.2966300 
   33469387755    -0.0972403   -0.2271455    -0.0015884    0.0008587    -0.0014217   -0.0010953    -0.2933189   -0.2025286 
   33673469388     0.3049037    0.2962394     0.0022139   -0.0003280     0.0011921    0.0018132     0.2993442    0.0566884 
   33877551020    -0.2893105   -0.1055366    -0.0021193   -0.0002636    -0.0007824   -0.0019407    -0.2904085   -0.0328741 
   34081632653     0.3593897   -0.0159049     0.0025037    0.0003043     0.0007384    0.0023141     0.3564767   -0.1434121 
   34285714286    -0.2572081    0.1568568    -0.0024753   -0.0017123     0.0005098   -0.0028989    -0.2222226    0.1727878 
   34489795918     0.2273453   -0.2013294     0.0022568    0.0018685    -0.0008314    0.0028509     0.1309043   -0.2500211 
   34693877551    -0.0163302    0.3022152    -0.0023170   -0.0026203     0.0017443   -0.0031018     0.0086536    0.3037617 
   34897959184     0.1002712   -0.2665177     0.0009169    0.0032882    -0.0028269    0.0023051    -0.1270471   -0.2478647 
   35102040816     0.1528758    0.3254254    -0.0006616   -0.0034865     0.0031643   -0.0020879     0.1986829    0.1869965 
   35306122449    -0.1366553   -0.1655260    -0.0005311    0.0039783    -0.0039556    0.0011397    -0.2696613   -0.1429407 
   35510204082     0.3235803    0.2117164     0.0015893   -0.0036903     0.0039907   -0.0000464     0.2664343   -0.0479986 
   35714285714    -0.2885252    0.0163952    -0.0023848    0.0032896    -0.0039753   -0.0009566    -0.2398508    0.0383529 
   35918367347     0.2656993   -0.0996396     0.0032177   -0.0032573     0.0041483    0.0018992     0.2308365   -0.2761578 
   36122448980    -0.2379874    0.1806389    -0.0044448    0.0020574    -0.0036071   -0.0034243    -0.1227566    0.1803896 
   36326530612     0.1670052   -0.2490616     0.0044437   -0.0007466     0.0022610    0.0038385     0.0684484   -0.2950615 
   36530612245    -0.0757430    0.2120826    -0.0056118   -0.0006935    -0.0012952   -0.0054604     0.0587657    0.2348631 
   36734693878     0.0615105   -0.2902350     0.0052901    0.0027527    -0.0008581    0.0059686    -0.0814511   -0.2244254 
   36938775510     0.1548917    0.2329330    -0.0054683   -0.0037022     0.0014826   -0.0064025     0.1531747    0.1672309 
   37142857143    -0.0825899   -0.2441764     0.0036172    0.0054254    -0.0036929    0.0054635    -0.2409740   -0.1305268 
   37346938776     0.2823199    0.1254252    -0.0042545   -0.0066730     0.0048646   -0.0060561     0.1956067   -0.0436586 
   37551020408    -0.1982431   -0.0401340     0.0023781    0.0087662    -0.0073120    0.0051264    -0.2524211   -0.0166139 
   37755102041     0.2464316   -0.0885422    -0.0002030   -0.0093075     0.0091092   -0.0030345     0.1281234   -0.1843862 
   37959183673    -0.1125403    0.0626973    -0.0015338    0.0100102    -0.0100301    0.0018097    -0.1164816    0.1117897 
   38163265306     0.0933194   -0.2132653     0.0016308   -0.0103093     0.0101633   -0.0018898     0.0033544   -0.2537517 
   38367346939     0.0339486    0.0973371    -0.0044108    0.0102321    -0.0107248   -0.0010723     0.0960689    0.1484722 
   38571428571    -0.0315313   -0.2417280     0.0061516   -0.0071265     0.0081243    0.0039464    -0.1727748   -0.1202164 
   38775510204     0.1913472    0.0672050    -0.0064727    0.0077707    -0.0090915   -0.0043623     0.1460466   -0.0012073 
   38979591837    -0.1760787   -0.0534321     0.0089934   -0.0060122     0.0085324    0.0068700    -0.2311104    0.0264462 
   39183673469     0.2116835   -0.0819555    -0.0090447    0.0017314    -0.0044340   -0.0078957     0.0826675   -0.1819895 
   39387755102    -0.1511280    0.1472454     0.0086759   -0.0009012     0.0034159    0.0076309    -0.1144306    0.1025844 
   39591836735     0.0172107   -0.2138117    -0.0087180   -0.0007839    -0.0020199   -0.0084876    -0.0248925   -0.2773340 
   39795918367    -0.0915193    0.1566439     0.0077933    0.0040616    -0.0015874    0.0086921     0.0886283    0.1193003 
   40000000000    -0.1303554   -0.2373720    -0.0059567   -0.0056989     0.0036227   -0.0073937    -0.0505613   -0.2392642 
