! 10/2/2026 3:06:58 PM
! C:\ANRITSUVNA\TEMP\TEMP.S2P
! CHANNEL.1
! TR.MEASUREMENT
! RAW.DATA
# HZ S RI R 50.0
! FREQ.HZ          S11RE         S11IM         S21RE         S21IM         S12RE         S12IM         S22RE         S22IM         
!; PortSelection: Port_12
   30000000000     0.2139491    0.2212648    -0.0017118   -0.0030103     0.0017041   -0.0029803     0.3761628    0.1013307 
   30204081633    -0.4414944   -0.0856447     0.0008420    0.0023212    -0.0014936    0.0019666    -0.2788368    0.0618091 
   30408163265     0.3263237   -0.1001165    -0.0009787   -0.0018721     0.0011609   -0.0018088     0.2929885   -0.1471865 
   30612244898    -0.3001347    0.2746833     0.0010831    0.0019264    -0.0010706    0.0018856    -0.1627831    0.3735825 
   30816326531     0.0435451   -0.3189673    -0.0007969   -0.0021021     0.0013039   -0.0018629     0.0523119   -0.2520382 
   31020408163     0.0489625    0.4296303     0.0005477    0.0015056    -0.0010279    0.0012631     0.0847465    0.3846024 
   31224489796    -0.1852803   -0.1996644    -0.0003903   -0.0016689     0.0011471   -0.0011981    -0.1560886   -0.2553937 
   31428571429     0.1749866    0.2995306     0.0000973    0.0015491    -0.0012407    0.0009246     0.2719935    0.1865534 
   31632653061    -0.3589066   -0.0899687    -0.0000248   -0.0014124     0.0011686   -0.0006961    -0.2711763   -0.1297711 
   31836734694     0.2539582    0.2399502    -0.0004452    0.0009718    -0.0010418    0.0001782     0.4008027   -0.0393727 
   32040816327    -0.4169470   -0.0009144     0.0002338   -0.0008544     0.0008812   -0.0002214    -0.2479193    0.1507201 
   32244897959     0.3152370   -0.1520740    -0.0004444    0.0008548    -0.0009843    0.0000569     0.3130060   -0.2317175 
   32448979592    -0.2896464    0.2630868     0.0006248   -0.0005230     0.0007710    0.0003327    -0.0966454    0.3399540 
   32653061224     0.2007059   -0.3329013    -0.0007434    0.0005110    -0.0007816   -0.0004081     0.1291693   -0.2437165 
   32857142857    -0.0037172    0.3366742     0.0008109   -0.0004766     0.0007034    0.0005506    -0.0216356    0.3982012 
   33061224490     0.0787630   -0.3019210    -0.0009650   -0.0000646    -0.0004332   -0.0008034    -0.0625283   -0.2233963 
   33265306122     0.1217759    0.3777297     0.0007458    0.0002319     0.0002432    0.0006500     0.1448187    0.2997591 
   33469387755    -0.0922531   -0.2309105    -0.0008463   -0.0003164    -0.0000821   -0.0008039    -0.2888676   -0.2074315 
   33673469388     0.3012168    0.3022200     0.0007820    0.0006278    -0.0002217    0.0008565     0.2965953    0.0631052 
   33877551020    -0.2871017   -0.1124355    -0.0004981   -0.0008777     0.0005513   -0.0008180    -0.2901103   -0.0390486 
   34081632653     0.3613634   -0.0089630     0.0005656    0.0010639    -0.0007290    0.0009348     0.3583855   -0.1375074 
   34285714286    -0.2605714    0.1500997    -0.0000858   -0.0011985     0.0009735   -0.0005996    -0.2255279    0.1684064 
   34489795918     0.2332534   -0.1974855     0.0000859    0.0011905    -0.0011728    0.0005736     0.1361560   -0.2480841 
   34693877551    -0.0228010    0.3009456     0.0000498   -0.0014394     0.0013404   -0.0005111     0.0022164    0.3031628 
   34897959184     0.1074482   -0.2673396    -0.0006245    0.0011620    -0.0014179   -0.0000800    -0.1225185   -0.2496369 
   35102040816     0.1464864    0.3279457     0.0007331   -0.0011787     0.0014546    0.0001470     0.1947639    0.1910934 
   35306122449    -0.1325565   -0.1703480    -0.0011073    0.0010783    -0.0014205   -0.0007134    -0.2679200   -0.1473627 
   35510204082     0.3210951    0.2176899     0.0012479   -0.0008089     0.0012922    0.0008620     0.2664087   -0.0421911 
   35714285714    -0.2879047    0.0105425    -0.0015327    0.0005451    -0.0010989   -0.0011831    -0.2414198    0.0331007 
   35918367347     0.2679937   -0.0934070     0.0016883   -0.0004051     0.0009399    0.0014615     0.2347032   -0.2714110 
   36122448980    -0.2431343    0.1748106    -0.0020316   -0.0003605    -0.0004754   -0.0019795    -0.1283119    0.1766705 
   36326530612     0.1725849   -0.2460893     0.0015722    0.0004649     0.0000697    0.0015700     0.0758114   -0.2946595 
   36530612245    -0.0812453    0.2100537    -0.0019274   -0.0010762     0.0002751   -0.0021303     0.0504999    0.2359581 
   36734693878     0.0672350   -0.2907631     0.0011616    0.0018578    -0.0013436    0.0017325    -0.0755253   -0.2280464 
   36938775510     0.1494785    0.2355055    -0.0011767   -0.0020800     0.0014871   -0.0018833     0.1490032    0.1741204 
   37142857143    -0.0792395   -0.2475838     0.0004417    0.0026109    -0.0021711    0.0013467    -0.2392606   -0.1383031 
   37346938776     0.2805125    0.1299391    -0.0003768   -0.0027021     0.0023855   -0.0012144     0.1984046   -0.0352513 
   37551020408    -0.1979772   -0.0442097    -0.0004196    0.0028498    -0.0028272    0.0007095    -0.2577715   -0.0220977 
   37755102041     0.2481457   -0.0846059     0.0011896   -0.0033692     0.0034873    0.0000043     0.1352764   -0.1833266 
   37959183673    -0.1152509    0.0605653    -0.0017122    0.0030968    -0.0034502   -0.0006079    -0.1223896    0.1133622 
   38163265306     0.0959304   -0.2128507     0.0017908   -0.0033214     0.0037347    0.0006135     0.0067075   -0.2581828 
   38367346939     0.0317455    0.0977598    -0.0031597    0.0027302    -0.0035858   -0.0021485     0.0946855    0.1525562 
   38571428571    -0.0288603   -0.2439027     0.0029672   -0.0017858     0.0024811    0.0021809    -0.1741121   -0.1235479 
   38775510204     0.1909425    0.0692635    -0.0037773    0.0023712    -0.0032867   -0.0029023     0.1490841    0.0016394 
   38979591837    -0.1767916   -0.0557752     0.0036732   -0.0016248     0.0026601    0.0031863    -0.2342309    0.0248915 
   39183673469     0.2145843   -0.0802803    -0.0038432   -0.0000942    -0.0012085   -0.0036578     0.0860877   -0.1813839 
   39387755102    -0.1528131    0.1456402     0.0033094    0.0001455     0.0008902    0.0031078    -0.1176687    0.1026696 
   39591836735     0.0208088   -0.2125059    -0.0032811   -0.0009335    -0.0002150   -0.0033759    -0.0213285   -0.2779190 
   39795918367    -0.0952070    0.1574012     0.0027510    0.0018714    -0.0010059    0.0031653     0.0851339    0.1210750 
   40000000000    -0.1272903   -0.2394626    -0.0020773   -0.0026812     0.0019567   -0.0026279    -0.0470775   -0.2421501 
