! 10/2/2026 3:10:08 PM
! C:\ANRITSUVNA\TEMP\TEMP.S2P
! CHANNEL.1
! TR.MEASUREMENT
! RAW.DATA
# HZ S RI R 50.0
! FREQ.HZ          S11RE         S11IM         S21RE         S21IM         S12RE         S12IM         S22RE         S22IM         
!; PortSelection: Port_12
   30000000000     0.2170100    0.2206247    -0.0041026   -0.0005221    -0.0016764   -0.0037986     0.3745520    0.1032811 
   30204081633    -0.4439880   -0.0843749     0.0018193    0.0012771    -0.0001105    0.0022510    -0.2786462    0.0595274 
   30408163265     0.3274335   -0.1028350    -0.0008769   -0.0012332     0.0006292   -0.0013858     0.2939820   -0.1454588 
   30612244898    -0.2993320    0.2776715    -0.0000419    0.0012656    -0.0011051    0.0006388    -0.1643340    0.3724114 
   30816326531     0.0408821   -0.3207858     0.0009675   -0.0009138     0.0013307    0.0003480     0.0536512   -0.2516325 
   31020408163     0.0521859    0.4303142    -0.0011987    0.0000687    -0.0006975   -0.0009464     0.0833284    0.3847610 
   31224489796    -0.1881052   -0.1988591     0.0013995    0.0007627     0.0000232    0.0016265    -0.1550080   -0.2557292 
   31428571429     0.1767641    0.2979044    -0.0009066   -0.0016672     0.0009433   -0.0017224     0.2706631    0.1870126 
   31632653061    -0.3600361   -0.0880509     0.0003859    0.0020415    -0.0015763    0.0013795    -0.2699785   -0.1304739 
   31836734694     0.2547223    0.2377336     0.0010189   -0.0015252     0.0018630    0.0000232     0.3999230   -0.0387384 
   32040816327    -0.4170539    0.0007252    -0.0012208    0.0015238    -0.0019534   -0.0002811    -0.2478789    0.1490082 
   32244897959     0.3143612   -0.1535060     0.0021784   -0.0011358     0.0020665    0.0013975     0.3130099   -0.2299216 
   32448979592    -0.2885935    0.2644643    -0.0022704   -0.0004174    -0.0007073   -0.0022776    -0.0975031    0.3386414 
   32653061224     0.1995090   -0.3336911     0.0024545    0.0011188     0.0002097    0.0026082     0.1304725   -0.2421736 
   32857142857    -0.0021208    0.3368577    -0.0020038   -0.0022620     0.0008615   -0.0028272    -0.0234388    0.3959490 
   33061224490     0.0767788   -0.3016441     0.0003155    0.0034545    -0.0027780    0.0018420    -0.0606183   -0.2222578 
   33265306122     0.1237303    0.3772389     0.0011518   -0.0031065     0.0030835   -0.0005544     0.1421703    0.2991872 
   33469387755    -0.0936293   -0.2296809    -0.0024497    0.0033521    -0.0038759   -0.0005592    -0.2859659   -0.2078366 
   33673469388     0.3017820    0.3005301     0.0043110   -0.0018125     0.0033144    0.0030027     0.2935863    0.0649702 
   33877551020    -0.2873474   -0.1100737    -0.0045903    0.0000242    -0.0018887   -0.0040764    -0.2879094   -0.0417411 
   34081632653     0.3602235   -0.0106783     0.0054458    0.0011487     0.0011692    0.0054560     0.3576301   -0.1326447 
   34285714286    -0.2589862    0.1516929    -0.0048606   -0.0042285     0.0018636   -0.0063025    -0.2259186    0.1642628 
   34489795918     0.2310896   -0.1980575     0.0035459    0.0052874    -0.0033962    0.0055835     0.1390126   -0.2448611 
   34693877551    -0.0207388    0.3003975    -0.0022648   -0.0072410     0.0060381   -0.0048793    -0.0021341    0.3006553 
   34897959184     0.1058027   -0.2658727    -0.0017846    0.0073283    -0.0076405    0.0013527    -0.1182640   -0.2493533 
   35102040816     0.1478205    0.3262885     0.0032640   -0.0073024     0.0081582    0.0003153     0.1898518    0.1932856 
   35306122449    -0.1326339   -0.1685904    -0.0066785    0.0060802    -0.0081716   -0.0038318    -0.2650286   -0.1505919 
   35510204082     0.3207275    0.2155263     0.0081806   -0.0026881     0.0057003    0.0065976     0.2649463   -0.0372336 
   35714285714    -0.2869900    0.0121428    -0.0091006    0.0002655    -0.0037004   -0.0084052    -0.2419143    0.0286408 
   35918367347     0.2662781   -0.0944829     0.0097160    0.0032399     0.0005843    0.0101306     0.2372536   -0.2672058 
   36122448980    -0.2410888    0.1751719    -0.0080482   -0.0076288     0.0039787   -0.0104320    -0.1322664    0.1734901 
   36326530612     0.1704560   -0.2457812     0.0048486    0.0094546    -0.0071345    0.0076831     0.0803876   -0.2938359 
   36530612245    -0.0796094    0.2091461    -0.0010587   -0.0129375     0.0117368   -0.0054604     0.0457571    0.2359724 
   36734693878     0.0664542   -0.2889636    -0.0050401    0.0127014    -0.0138572   -0.0000804    -0.0713064   -0.2299870 
   36938775510     0.1495743    0.2334827     0.0083200   -0.0121433     0.0141708    0.0033595     0.1448700    0.1777346 
   37142857143    -0.0781580   -0.2458064    -0.0126451    0.0070974    -0.0114732   -0.0092341    -0.2372839   -0.1425435 
   37346938776     0.2789878    0.1288965     0.0155682   -0.0055011     0.0101337    0.0129527     0.1989734   -0.0289150 
   37551020408    -0.1961654   -0.0441712    -0.0188104   -0.0011359    -0.0054888   -0.0178280    -0.2599229   -0.0268520 
   37755102041     0.2464077   -0.0836278     0.0177546    0.0081221    -0.0019803    0.0197207     0.1395050   -0.1799278 
   37959183673    -0.1141088    0.0588722    -0.0151597   -0.0127932     0.0070504   -0.0181902    -0.1279283    0.1117618 
   38163265306     0.0963844   -0.2111565     0.0138799    0.0161988    -0.0111346    0.0182042     0.0128010   -0.2592598 
   38367346939     0.0305561    0.0964487    -0.0066485   -0.0214695     0.0185163   -0.0129043     0.0901648    0.1559592 
   38571428571    -0.0273619   -0.2435357    -0.0018945    0.0198483    -0.0190390    0.0037110    -0.1727874   -0.1282127 
   38775510204     0.1896138    0.0693473     0.0034494   -0.0207662     0.0208544   -0.0022136     0.1497908    0.0078703 
   38979591837    -0.1762573   -0.0562046    -0.0112080    0.0192553    -0.0216591   -0.0051255    -0.2365291    0.0202144 
   39183673469     0.2140275   -0.0796541     0.0164600   -0.0087042     0.0132696    0.0127382     0.0903829   -0.1782666 
   39387755102    -0.1527807    0.1452268    -0.0161965    0.0047513    -0.0095765   -0.0136507    -0.1229690    0.1019008 
   39591836735     0.0206835   -0.2123538     0.0176194    0.0005406     0.0053517    0.0165657    -0.0159495   -0.2792086 
   39795918367    -0.0951206    0.1570352    -0.0140224   -0.0091106     0.0047310   -0.0159408     0.0812820    0.1238417 
   40000000000    -0.1276809   -0.2392310     0.0097264    0.0134698    -0.0099067    0.0131128    -0.0442684   -0.2465011 
